# mp2/cc-pVDZ irc(forward, calcfc, maxpoints=64, stepsize=5, tight) integral(grid=superfine) scf(maxcyc=256)

OH-chloromethane_product

-1 1
Cl     -1.657852         0.000036       0.000008
C       0.398411        -0.014663      -0.000001
H       0.566149        -0.545967       0.929261
H       0.566141        -0.546052      -0.929216
H       0.589545         1.052467      -0.000051
O       2.631756         0.113223      -0.000017
H       3.017143        -0.778872       0.000022

