# mp2/cc-PVDZ irc(forward, calcfc, maxpoints=2, stepsize=10, tight) integral(grid=superfine) scf(maxcyc=256)

OH-chloromethane_product

-1 1
Cl                    -1.939109   -0.049942    0.000012
C                     1.394680    0.176477   -0.000015
H                     0.896124   -0.250754    0.885105
H                     0.896116   -0.250835   -0.885090
H                     1.202441    1.258338   -0.000063
O                     2.821497   -0.007862   -0.000013
H                     2.941531   -0.965373    0.000030


