# b3lyp/aug-cc-PVDZ opt(tight) integral(grid=superfine) scf(maxcyc=256)

OH-chloromethane_product

-1 1
Cl                    -0.939361   -0.712508   -0.467509
C                     0.304781    0.433244    0.540188
H                    -0.080738    0.230354    1.569680
H                     1.996749   -0.012996    0.033370
H                    -0.147800    1.425278    0.293850
O                     2.874183   -0.384299   -0.360434
H                     2.487107   -1.043434   -0.957236


