# b3lyp/aug-cc-PVDZ opt(qst3, calcfc, noeigen, tight) integral(grid=superfine) scf(maxcyc=256) freq

OH-chloromethane_ts.xyz reactant

-1 1
Cl                    -1.657852    0.000036    0.000008

OH-chloromethane_ts.xyz product

-1 1
C                     0.398411   -0.014663   -0.000001

OH-chloromethane_ts.xyz ts

-1 1
H                     0.566149   -0.545967    0.929261


